c read Graph
c width = 234
c time = 114 ms
c width = 19
c time = 265 ms
c width = 18
c time = 415 ms
c width = 17
c time = 813 ms
c width = 16
c time = 2813 ms
c width = 15
c time = 4650 ms
c width = 15
c time = 5001 ms
s td 205 16 247
b 1 1 2 20
b 2 2 3 20 21
b 3 17 18 37 38
b 4 3 20 21 39
b 5 17 37 38 57
b 6 191 210 211 230
b 7 209 227 228 246
b 8 191 211 230 231
b 9 209 227 245 246
b 10 3 4 5 23
b 11 3 5 22 23 40 58
b 12 5 22 23 40 42 58 60
b 13 5 23 40 42 58 60 78
b 14 40 58 59 60 78
b 15 5 23 42 58 60 78 96
b 16 58 77 78 96
b 17 5 23 25 42 43 60 78 96
b 18 5 23 24 25 43
b 19 5 25 42 43 60 62 78 80 96
b 20 42 60 61 62 80
b 21 5 25 43 60 62 78 80 96 98
b 22 60 78 79 80 98
b 23 5 25 43 62 78 80 96 98 116
b 24 78 96 97 98 116
b 25 5 25 43 45 62 63 80 96 98 116
b 26 25 43 44 45 63
b 27 5 25 45 62 63 80 83 96 98 102 116 118 120 138
b 28 62 63 80 83 98 100 102 118 120 138
b 29 62 63 80 82 83 100 102 120
b 30 62 80 81 82 100
b 31 82 100 101 102 120
b 32 80 98 99 100 118
b 33 100 118 119 120 138
b 34 5 25 45 63 65 83 96 98 102 116 118 120 138
b 35 45 63 64 65 83
b 36 5 25 45 65 83 96 98 102 116 118 120 136 138
b 37 5 25 45 65 83 96 102 116 118 120 136 138 156
b 38 5 25 45 65 83 96 102 116 120 136 138 156 176 196 214 234
b 39 5 25 45 65 83 102 120 122 138 140 156 158 176 196 214 234
b 40 5 25 45 65 83 102 122 140 158 176 178 196 214 234
b 41 158 176 177 178 196
b 42 5 25 45 65 83 102 122 140 158 178 196 198 214 218 234 238
b 43 178 196 198 214 216 218 234 238
b 44 178 196 197 198 216
b 45 196 214 215 216 234
b 46 198 216 218 234 236 238
b 47 198 216 217 218 236
b 48 216 234 235 236
b 49 218 236 237 238
b 50 5 25 45 65 83 102 122 140 158 160 178 198 218 238
b 51 5 25 45 65 83 102 122 140 142 160 178 198 218 238
b 52 122 140 141 142 160
b 53 5 25 45 65 83 85 102 105 122 123 142 160 178 198 218 238
b 54 65 83 85 102 103 105 122 123
b 55 65 83 84 85 103
b 56 85 103 104 105 123
b 57 5 25 45 65 85 105 123 142 160 162 178 182 198 200 218 238
b 58 142 160 162 178 180 182 198 200 218
b 59 180 198 199 200 218
b 60 162 180 181 182 200
b 61 142 160 161 162 180
b 62 160 178 179 180 198
b 63 5 9 25 29 45 47 65 85 105 123 142 162 182 200 218 238
b 64 9 29 47 49 65 69 85 87 105 123 142 162 182 200 218 238
b 65 9 13 29 33 49 51 69 87 105 123 142 162 182 200 218 238
b 66 9 13 29 31 33 49 51 69
b 67 31 49 50 51 69
b 68 9 11 13 29 31 49
b 69 11 12 13 31
b 70 9 10 11 29
b 71 11 29 30 31 49
b 72 13 31 32 33 51
b 73 13 33 51 69 87 105 123 125 142 144 162 182 200 218 238
b 74 13 33 51 69 87 105 107 125 126 144 162 182 200 218 238
b 75 13 33 51 69 87 89 107 108 126 144 162 182 200 218 238
b 76 69 87 88 89 107
b 77 13 33 51 69 89 108 126 144 162 164 182 200 218 238
b 78 144 162 163 164 182
b 79 13 33 51 69 89 108 126 144 164 182 200 202 218 222 238 242
b 80 13 33 51 69 89 108 126 144 164 182 184 202 222 242
b 81 13 33 51 69 89 108 126 128 144 148 164 166 184 202 222 242
b 82 108 126 128 144 146 148 164 166 184
b 83 108 126 127 128 146
b 84 128 146 147 148 166
b 85 146 164 165 166 184
b 86 126 144 145 146 164
b 87 164 182 183 184 202
b 88 182 200 202 218 220 222 238 242
b 89 182 200 201 202 220
b 90 202 220 222 238 240 242
b 91 220 238 239 240
b 92 202 220 221 222 240
b 93 222 240 241 242
b 94 200 218 219 220 238
b 95 87 105 106 107 125
b 96 105 123 125 142 143 144 162
b 97 105 123 124 125 143
b 98 29 47 49 65 67 69 85 87 105
b 99 29 47 48 49 67
b 100 49 67 68 69 87
b 101 67 85 86 87 105
b 102 47 65 66 67 85
b 103 5 9 25 27 29 45 47 65
b 104 9 27 28 29 47
b 105 5 7 9 25 27 45
b 106 7 8 9 27
b 107 5 6 7 25
b 108 7 25 26 27 45
b 109 27 45 46 47 65
b 110 140 158 159 160 178
b 111 102 120 121 122 140
b 112 120 138 139 140 158
b 113 138 156 157 158 176
b 114 96 116 136 154 156 172 176 196 214 234
b 115 96 116 134 136 154 172
b 116 134 153 154 172
b 117 96 115 116 134
b 118 116 134 135 136 154
b 119 136 154 156 172 176 194 196 214 234
b 120 136 154 156 172 174 176 194 214 234
b 121 154 172 174 194 214 232 234
b 122 214 232 233 234
b 123 154 172 174 194 212 214 232
b 124 194 212 213 214 232
b 125 154 172 174 192 194 212 232
b 126 172 192 212 231 232
b 127 172 191 192 212 231
b 128 191 192 211 212 231
b 129 174 192 193 194 212
b 130 154 172 173 174 192
b 131 136 154 155 156 174
b 132 156 174 175 176 194
b 133 176 194 195 196 214
b 134 118 136 137 138 156
b 135 98 116 117 118 136
b 136 22 40 41 42 60
b 137 3 22 39 40 58
b 138 3 21 22 39 40
b 139 184 202 203 204 222
b 140 51 69 70 71 89
b 141 76 94 112 130 148 166 184 186 204 222 242
b 142 76 94 112 130 148 166 184 202 204 222 242
b 143 13 33 53 54 72 74 76 92 94
b 144 13 33 53 72 74 76 92 94 112
b 145 13 33 51 69 71 89 108 128 148 166 184 202 222 242
b 146 13 33 51 53 71 89 108 128 148 166 184 202 222 242
b 147 13 33 53 71 89 90 108 128 148 166 184 202 222 242
b 148 13 33 53 71 72 90 108 128 148 166 184 202 222 242
b 149 13 33 53 72 90 108 110 128 148 166 184 202 222 242
b 150 13 33 53 72 90 110 128 130 148 166 184 202 222 242
b 151 13 33 53 72 76 90 92 94 110 112 130
b 152 13 33 53 72 76 90 94 110 112 130 148 166 184 202 222 242
b 153 76 90 94 110 112 130 148 166 184 202 222 242
b 154 166 184 185 186 204
b 155 76 94 112 130 148 150 152 166 170 186 204 222 242
b 156 76 94 112 130 132 150 152 170
b 157 76 94 112 114 132 152
b 158 76 94 95 114
b 159 114 132 133 152
b 160 94 112 113 114 132
b 161 132 150 151 152 170
b 162 112 130 131 132 150
b 163 130 148 150 152 166 168 170 186 204 222 242
b 164 150 152 168 170 186 204 222 224 242
b 165 150 152 168 170 186 204 206 224 242
b 166 186 204 205 206 224
b 167 150 152 168 170 186 188 206 224 242
b 168 168 186 187 188 206
b 169 152 170 188 206 224 242 244
b 170 224 242 243 244
b 171 152 170 188 190 206 224 244
b 172 170 188 190 206 224 226 244
b 173 206 224 225 226 244
b 174 170 188 190 206 208 226 244
b 175 190 208 226 244 245
b 176 190 208 209 226 245
b 177 208 209 226 227 245
b 178 170 188 189 190 208
b 179 188 206 207 208 226
b 180 152 170 171 190
b 181 150 168 169 170 188
b 182 204 222 223 224 242
b 183 148 166 167 168 186
b 184 130 148 149 150 168
b 185 72 90 91 92 110
b 186 90 108 109 110 128
b 187 92 110 111 112 130
b 188 110 128 129 130 148
b 189 33 51 52 53 71
b 190 54 72 73 74 92
b 191 13 17 33 36 53 54 74 76 94
b 192 17 36 54 56 74 76 94
b 193 56 74 75 76 94
b 194 17 36 56 57 76
b 195 17 36 37 56 57
b 196 36 54 55 56 74
b 197 13 17 33 35 36 53 54
b 198 13 15 17 33 35 53
b 199 13 14 15 33
b 200 15 16 17 35
b 201 15 33 34 35 53
b 202 74 92 93 94 112
b 203 228 246 247
b 204 210 229 230
b 205 18 19 38
1 2
2 4
3 205
3 5
4 138
5 195
6 204
6 8
7 203
7 9
8 128
9 177
10 11
11 137
11 12
12 136
12 13
13 15
13 14
15 17
15 16
17 19
17 18
19 21
19 20
21 23
21 22
23 25
23 24
25 27
25 26
27 34
27 28
28 29
28 32
28 33
29 31
29 30
34 36
34 35
36 135
36 37
37 134
37 38
38 114
38 39
39 111
39 112
39 113
39 40
40 42
40 41
42 50
42 43
43 45
43 46
43 44
46 48
46 49
46 47
50 110
50 51
51 53
51 52
53 57
53 54
54 56
54 55
57 63
57 58
58 59
58 60
58 61
58 62
63 103
63 64
64 98
64 65
65 73
65 66
66 72
66 68
66 67
68 70
68 71
68 69
73 96
73 74
74 95
74 75
75 77
75 76
77 79
77 78
79 88
79 80
80 87
80 81
81 145
81 82
82 86
82 85
82 83
82 84
88 94
88 90
88 89
90 91
90 92
90 93
96 97
98 100
98 101
98 102
98 99
103 104
103 105
103 109
105 106
105 107
105 108
114 115
114 119
115 116
115 117
115 118
119 120
119 133
120 131
120 132
120 121
121 123
121 122
123 124
123 125
125 126
125 130
125 129
126 127
127 128
137 138
139 142
140 145
141 154
141 155
141 142
142 153
143 190
143 191
143 144
144 202
144 151
145 146
146 189
146 147
147 148
148 149
149 186
149 150
150 188
150 152
151 187
151 185
151 152
152 153
155 156
155 163
156 162
156 161
156 157
157 158
157 159
157 160
163 183
163 184
163 164
164 165
164 182
165 166
165 167
167 181
167 168
167 169
169 170
169 171
171 180
171 172
172 173
172 174
174 175
174 178
174 179
175 176
176 177
191 197
191 192
192 194
192 193
192 196
194 195
197 198
198 199
198 200
198 201
